[VALIDATOR STDOUT]
Type-checking walk
...action passes type checking.
Type-checking pickup_spanner
...action passes type checking.
Type-checking tighten_nut
...action passes type checking.
Checking plan: /home/jfan5/Safety-gen/runs/benchmark/optic/spanner_20260205_141553/spanner/optic_results/spanner-s4-n3-l6-s4001.plan
Plan to validate:

Plan size: 13
1:
(walk shed location1 bob)
 
2:
(walk location1 location2 bob)
 
3:
(walk location2 location3 bob)
 
4:
(walk location3 location4 bob)
 
5:
(pickup_spanner location4 spanner1 bob)
 
6:
(pickup_spanner location4 spanner4 bob)
 
7:
(walk location4 location5 bob)
 
8:
(walk location5 location6 bob)
 
9:
(pickup_spanner location6 spanner2 bob)
 
10:
(walk location6 gate bob)
 
11:
(tighten_nut gate spanner1 bob nut3)
 
12:
(tighten_nut gate spanner2 bob nut2)
 
13:
(tighten_nut gate spanner4 bob nut1)
 

Plan Validation details
-----------------------

Checking next happening (time 1)
Deleting (at bob shed)
Adding (at bob location1)

Checking next happening (time 2)
Deleting (at bob location1)
Adding (at bob location2)

Checking next happening (time 3)
Deleting (at bob location2)
Adding (at bob location3)

Checking next happening (time 4)
Deleting (at bob location3)
Adding (at bob location4)

Checking next happening (time 5)
Deleting (at spanner1 location4)
Adding (carrying bob spanner1)

Checking next happening (time 6)
Deleting (at spanner4 location4)
Adding (carrying bob spanner4)

Checking next happening (time 7)
Deleting (at bob location4)
Adding (at bob location5)

Checking next happening (time 8)
Deleting (at bob location5)
Adding (at bob location6)

Checking next happening (time 9)
Deleting (at spanner2 location6)
Adding (carrying bob spanner2)

Checking next happening (time 10)
Deleting (at bob location6)
Adding (at bob gate)

Checking next happening (time 11)
Deleting (loose nut3)
Deleting (useable spanner1)
Adding (tightened nut3)

Checking next happening (time 12)
Deleting (loose nut2)
Deleting (useable spanner2)
Adding (tightened nut2)

Checking next happening (time 13)
Deleting (loose nut1)
Deleting (useable spanner4)
Adding (tightened nut1)
Plan executed successfully - checking goal
Plan valid
Final value: 13 

Successful plans:
Value: 13
 /home/jfan5/Safety-gen/runs/benchmark/optic/spanner_20260205_141553/spanner/optic_results/spanner-s4-n3-l6-s4001.plan 13
